\Generated by Cardinal Operations

Minimize
   2 x_0_0 + 3 x_0_1 + x_0_2 + 2 x_0_3 + 3 x_0_4 + 2 x_0_5 + x_1_0 
   + 2 x_1_1 + 3 x_1_2 + 2 x_1_3 + 3 x_1_4 + 2 x_1_5 + 3 x_2_0 + x_2_1 
   + 2 x_2_2 + 3 x_2_3 + 2 x_2_4 + 3 x_2_5 + 2 x_3_0 + 3 x_3_1 + 2 x_3_2 
   + x_3_3 + 3 x_3_4 + 4 x_3_5 + 3 x_4_0 + 2 x_4_1 + 3 x_4_2 + 3 x_4_3 
   + 2 x_4_4 + 3 x_4_5 
Subject To
 demand_constraint: x_0_0 + x_1_0 + x_2_0 + x_3_0 + x_4_0 >= 70
 x_0_1 + x_1_1 + x_2_1 + x_3_1 + x_4_1 >= 80
 x_0_2 + x_1_2 + x_2_2 + x_3_2 + x_4_2 >= 60
 x_0_3 + x_1_3 + x_2_3 + x_3_3 + x_4_3 >= 90
 x_0_4 + x_1_4 + x_2_4 + x_3_4 + x_4_4 >= 85
 x_0_5 + x_1_5 + x_2_5 + x_3_5 + x_4_5 >= 95
 capacity_constraint: x_0_0 + x_0_1 + x_0_2 + x_0_3 + x_0_4 + x_0_5 <= 200
 x_1_0 + x_1_1 + x_1_2 + x_1_3 + x_1_4 + x_1_5 <= 250
 x_2_0 + x_2_1 + x_2_2 + x_2_3 + x_2_4 + x_2_5 <= 230
 x_3_0 + x_3_1 + x_3_2 + x_3_3 + x_3_4 + x_3_5 <= 220
 x_4_0 + x_4_1 + x_4_2 + x_4_3 + x_4_4 + x_4_5 <= 210
END

